c File: flat200_3_0.col
c
c SOURCE: Joseph Culberson (joe@cs.ualberta.ca)
c DESCRIPTION: Quasi-random coloring problem
c              generated with flatness = 0
c                             probability = 0.036
c                             known coloring = 3
c                             random seed = 1039
c              Creation Date:  Wed Feb 24 10:39:50 1999
c Maximum degree = 8 Minimum degree = 0
c COLOR VERIFICATION: Using the permuted order
c under simple greedy yields the specified
c coloring number
c Color = 3 specified partitions = 3
c p edge 200 479
c cnf created by edge2cnf
p cnf 600 2237
-1 -2 0
-1 -3 0
-2 -3 0
1 2 3 0
-4 -5 0
-4 -6 0
-5 -6 0
4 5 6 0
-7 -8 0
-7 -9 0
-8 -9 0
7 8 9 0
-10 -11 0
-10 -12 0
-11 -12 0
10 11 12 0
-13 -14 0
-13 -15 0
-14 -15 0
13 14 15 0
-16 -17 0
-16 -18 0
-17 -18 0
16 17 18 0
-19 -20 0
-19 -21 0
-20 -21 0
19 20 21 0
-22 -23 0
-22 -24 0
-23 -24 0
22 23 24 0
-25 -26 0
-25 -27 0
-26 -27 0
25 26 27 0
-28 -29 0
-28 -30 0
-29 -30 0
28 29 30 0
-31 -32 0
-31 -33 0
-32 -33 0
31 32 33 0
-34 -35 0
-34 -36 0
-35 -36 0
34 35 36 0
-37 -38 0
-37 -39 0
-38 -39 0
37 38 39 0
-40 -41 0
-40 -42 0
-41 -42 0
40 41 42 0
-43 -44 0
-43 -45 0
-44 -45 0
43 44 45 0
-46 -47 0
-46 -48 0
-47 -48 0
46 47 48 0
-49 -50 0
-49 -51 0
-50 -51 0
49 50 51 0
-52 -53 0
-52 -54 0
-53 -54 0
52 53 54 0
-55 -56 0
-55 -57 0
-56 -57 0
55 56 57 0
-58 -59 0
-58 -60 0
-59 -60 0
58 59 60 0
-61 -62 0
-61 -63 0
-62 -63 0
61 62 63 0
-64 -65 0
-64 -66 0
-65 -66 0
64 65 66 0
-67 -68 0
-67 -69 0
-68 -69 0
67 68 69 0
-70 -71 0
-70 -72 0
-71 -72 0
70 71 72 0
-73 -74 0
-73 -75 0
-74 -75 0
73 74 75 0
-76 -77 0
-76 -78 0
-77 -78 0
76 77 78 0
-79 -80 0
-79 -81 0
-80 -81 0
79 80 81 0
-82 -83 0
-82 -84 0
-83 -84 0
82 83 84 0
-85 -86 0
-85 -87 0
-86 -87 0
85 86 87 0
-88 -89 0
-88 -90 0
-89 -90 0
88 89 90 0
-91 -92 0
-91 -93 0
-92 -93 0
91 92 93 0
-94 -95 0
-94 -96 0
-95 -96 0
94 95 96 0
-97 -98 0
-97 -99 0
-98 -99 0
97 98 99 0
-100 -101 0
-100 -102 0
-101 -102 0
100 101 102 0
-103 -104 0
-103 -105 0
-104 -105 0
103 104 105 0
-106 -107 0
-106 -108 0
-107 -108 0
106 107 108 0
-109 -110 0
-109 -111 0
-110 -111 0
109 110 111 0
-112 -113 0
-112 -114 0
-113 -114 0
112 113 114 0
-115 -116 0
-115 -117 0
-116 -117 0
115 116 117 0
-118 -119 0
-118 -120 0
-119 -120 0
118 119 120 0
-121 -122 0
-121 -123 0
-122 -123 0
121 122 123 0
-124 -125 0
-124 -126 0
-125 -126 0
124 125 126 0
-127 -128 0
-127 -129 0
-128 -129 0
127 128 129 0
-130 -131 0
-130 -132 0
-131 -132 0
130 131 132 0
-133 -134 0
-133 -135 0
-134 -135 0
133 134 135 0
-136 -137 0
-136 -138 0
-137 -138 0
136 137 138 0
-139 -140 0
-139 -141 0
-140 -141 0
139 140 141 0
-142 -143 0
-142 -144 0
-143 -144 0
142 143 144 0
-145 -146 0
-145 -147 0
-146 -147 0
145 146 147 0
-148 -149 0
-148 -150 0
-149 -150 0
148 149 150 0
-151 -152 0
-151 -153 0
-152 -153 0
151 152 153 0
-154 -155 0
-154 -156 0
-155 -156 0
154 155 156 0
-157 -158 0
-157 -159 0
-158 -159 0
157 158 159 0
-160 -161 0
-160 -162 0
-161 -162 0
160 161 162 0
-163 -164 0
-163 -165 0
-164 -165 0
163 164 165 0
-166 -167 0
-166 -168 0
-167 -168 0
166 167 168 0
-169 -170 0
-169 -171 0
-170 -171 0
169 170 171 0
-172 -173 0
-172 -174 0
-173 -174 0
172 173 174 0
-175 -176 0
-175 -177 0
-176 -177 0
175 176 177 0
-178 -179 0
-178 -180 0
-179 -180 0
178 179 180 0
-181 -182 0
-181 -183 0
-182 -183 0
181 182 183 0
-184 -185 0
-184 -186 0
-185 -186 0
184 185 186 0
-187 -188 0
-187 -189 0
-188 -189 0
187 188 189 0
-190 -191 0
-190 -192 0
-191 -192 0
190 191 192 0
-193 -194 0
-193 -195 0
-194 -195 0
193 194 195 0
-196 -197 0
-196 -198 0
-197 -198 0
196 197 198 0
-199 -200 0
-199 -201 0
-200 -201 0
199 200 201 0
-202 -203 0
-202 -204 0
-203 -204 0
202 203 204 0
-205 -206 0
-205 -207 0
-206 -207 0
205 206 207 0
-208 -209 0
-208 -210 0
-209 -210 0
208 209 210 0
-211 -212 0
-211 -213 0
-212 -213 0
211 212 213 0
-214 -215 0
-214 -216 0
-215 -216 0
214 215 216 0
-217 -218 0
-217 -219 0
-218 -219 0
217 218 219 0
-220 -221 0
-220 -222 0
-221 -222 0
220 221 222 0
-223 -224 0
-223 -225 0
-224 -225 0
223 224 225 0
-226 -227 0
-226 -228 0
-227 -228 0
226 227 228 0
-229 -230 0
-229 -231 0
-230 -231 0
229 230 231 0
-232 -233 0
-232 -234 0
-233 -234 0
232 233 234 0
-235 -236 0
-235 -237 0
-236 -237 0
235 236 237 0
-238 -239 0
-238 -240 0
-239 -240 0
238 239 240 0
-241 -242 0
-241 -243 0
-242 -243 0
241 242 243 0
-244 -245 0
-244 -246 0
-245 -246 0
244 245 246 0
-247 -248 0
-247 -249 0
-248 -249 0
247 248 249 0
-250 -251 0
-250 -252 0
-251 -252 0
250 251 252 0
-253 -254 0
-253 -255 0
-254 -255 0
253 254 255 0
-256 -257 0
-256 -258 0
-257 -258 0
256 257 258 0
-259 -260 0
-259 -261 0
-260 -261 0
259 260 261 0
-262 -263 0
-262 -264 0
-263 -264 0
262 263 264 0
-265 -266 0
-265 -267 0
-266 -267 0
265 266 267 0
-268 -269 0
-268 -270 0
-269 -270 0
268 269 270 0
-271 -272 0
-271 -273 0
-272 -273 0
271 272 273 0
-274 -275 0
-274 -276 0
-275 -276 0
274 275 276 0
-277 -278 0
-277 -279 0
-278 -279 0
277 278 279 0
-280 -281 0
-280 -282 0
-281 -282 0
280 281 282 0
-283 -284 0
-283 -285 0
-284 -285 0
283 284 285 0
-286 -287 0
-286 -288 0
-287 -288 0
286 287 288 0
-289 -290 0
-289 -291 0
-290 -291 0
289 290 291 0
-292 -293 0
-292 -294 0
-293 -294 0
292 293 294 0
-295 -296 0
-295 -297 0
-296 -297 0
295 296 297 0
-298 -299 0
-298 -300 0
-299 -300 0
298 299 300 0
-301 -302 0
-301 -303 0
-302 -303 0
301 302 303 0
-304 -305 0
-304 -306 0
-305 -306 0
304 305 306 0
-307 -308 0
-307 -309 0
-308 -309 0
307 308 309 0
-310 -311 0
-310 -312 0
-311 -312 0
310 311 312 0
-313 -314 0
-313 -315 0
-314 -315 0
313 314 315 0
-316 -317 0
-316 -318 0
-317 -318 0
316 317 318 0
-319 -320 0
-319 -321 0
-320 -321 0
319 320 321 0
-322 -323 0
-322 -324 0
-323 -324 0
322 323 324 0
-325 -326 0
-325 -327 0
-326 -327 0
325 326 327 0
-328 -329 0
-328 -330 0
-329 -330 0
328 329 330 0
-331 -332 0
-331 -333 0
-332 -333 0
331 332 333 0
-334 -335 0
-334 -336 0
-335 -336 0
334 335 336 0
-337 -338 0
-337 -339 0
-338 -339 0
337 338 339 0
-340 -341 0
-340 -342 0
-341 -342 0
340 341 342 0
-343 -344 0
-343 -345 0
-344 -345 0
343 344 345 0
-346 -347 0
-346 -348 0
-347 -348 0
346 347 348 0
-349 -350 0
-349 -351 0
-350 -351 0
349 350 351 0
-352 -353 0
-352 -354 0
-353 -354 0
352 353 354 0
-355 -356 0
-355 -357 0
-356 -357 0
355 356 357 0
-358 -359 0
-358 -360 0
-359 -360 0
358 359 360 0
-361 -362 0
-361 -363 0
-362 -363 0
361 362 363 0
-364 -365 0
-364 -366 0
-365 -366 0
364 365 366 0
-367 -368 0
-367 -369 0
-368 -369 0
367 368 369 0
-370 -371 0
-370 -372 0
-371 -372 0
370 371 372 0
-373 -374 0
-373 -375 0
-374 -375 0
373 374 375 0
-376 -377 0
-376 -378 0
-377 -378 0
376 377 378 0
-379 -380 0
-379 -381 0
-380 -381 0
379 380 381 0
-382 -383 0
-382 -384 0
-383 -384 0
382 383 384 0
-385 -386 0
-385 -387 0
-386 -387 0
385 386 387 0
-388 -389 0
-388 -390 0
-389 -390 0
388 389 390 0
-391 -392 0
-391 -393 0
-392 -393 0
391 392 393 0
-394 -395 0
-394 -396 0
-395 -396 0
394 395 396 0
-397 -398 0
-397 -399 0
-398 -399 0
397 398 399 0
-400 -401 0
-400 -402 0
-401 -402 0
400 401 402 0
-403 -404 0
-403 -405 0
-404 -405 0
403 404 405 0
-406 -407 0
-406 -408 0
-407 -408 0
406 407 408 0
-409 -410 0
-409 -411 0
-410 -411 0
409 410 411 0
-412 -413 0
-412 -414 0
-413 -414 0
412 413 414 0
-415 -416 0
-415 -417 0
-416 -417 0
415 416 417 0
-418 -419 0
-418 -420 0
-419 -420 0
418 419 420 0
-421 -422 0
-421 -423 0
-422 -423 0
421 422 423 0
-424 -425 0
-424 -426 0
-425 -426 0
424 425 426 0
-427 -428 0
-427 -429 0
-428 -429 0
427 428 429 0
-430 -431 0
-430 -432 0
-431 -432 0
430 431 432 0
-433 -434 0
-433 -435 0
-434 -435 0
433 434 435 0
-436 -437 0
-436 -438 0
-437 -438 0
436 437 438 0
-439 -440 0
-439 -441 0
-440 -441 0
439 440 441 0
-442 -443 0
-442 -444 0
-443 -444 0
442 443 444 0
-445 -446 0
-445 -447 0
-446 -447 0
445 446 447 0
-448 -449 0
-448 -450 0
-449 -450 0
448 449 450 0
-451 -452 0
-451 -453 0
-452 -453 0
451 452 453 0
-454 -455 0
-454 -456 0
-455 -456 0
454 455 456 0
-457 -458 0
-457 -459 0
-458 -459 0
457 458 459 0
-460 -461 0
-460 -462 0
-461 -462 0
460 461 462 0
-463 -464 0
-463 -465 0
-464 -465 0
463 464 465 0
-466 -467 0
-466 -468 0
-467 -468 0
466 467 468 0
-469 -470 0
-469 -471 0
-470 -471 0
469 470 471 0
-472 -473 0
-472 -474 0
-473 -474 0
472 473 474 0
-475 -476 0
-475 -477 0
-476 -477 0
475 476 477 0
-478 -479 0
-478 -480 0
-479 -480 0
478 479 480 0
-481 -482 0
-481 -483 0
-482 -483 0
481 482 483 0
-484 -485 0
-484 -486 0
-485 -486 0
484 485 486 0
-487 -488 0
-487 -489 0
-488 -489 0
487 488 489 0
-490 -491 0
-490 -492 0
-491 -492 0
490 491 492 0
-493 -494 0
-493 -495 0
-494 -495 0
493 494 495 0
-496 -497 0
-496 -498 0
-497 -498 0
496 497 498 0
-499 -500 0
-499 -501 0
-500 -501 0
499 500 501 0
-502 -503 0
-502 -504 0
-503 -504 0
502 503 504 0
-505 -506 0
-505 -507 0
-506 -507 0
505 506 507 0
-508 -509 0
-508 -510 0
-509 -510 0
508 509 510 0
-511 -512 0
-511 -513 0
-512 -513 0
511 512 513 0
-514 -515 0
-514 -516 0
-515 -516 0
514 515 516 0
-517 -518 0
-517 -519 0
-518 -519 0
517 518 519 0
-520 -521 0
-520 -522 0
-521 -522 0
520 521 522 0
-523 -524 0
-523 -525 0
-524 -525 0
523 524 525 0
-526 -527 0
-526 -528 0
-527 -528 0
526 527 528 0
-529 -530 0
-529 -531 0
-530 -531 0
529 530 531 0
-532 -533 0
-532 -534 0
-533 -534 0
532 533 534 0
-535 -536 0
-535 -537 0
-536 -537 0
535 536 537 0
-538 -539 0
-538 -540 0
-539 -540 0
538 539 540 0
-541 -542 0
-541 -543 0
-542 -543 0
541 542 543 0
-544 -545 0
-544 -546 0
-545 -546 0
544 545 546 0
-547 -548 0
-547 -549 0
-548 -549 0
547 548 549 0
-550 -551 0
-550 -552 0
-551 -552 0
550 551 552 0
-553 -554 0
-553 -555 0
-554 -555 0
553 554 555 0
-556 -557 0
-556 -558 0
-557 -558 0
556 557 558 0
-559 -560 0
-559 -561 0
-560 -561 0
559 560 561 0
-562 -563 0
-562 -564 0
-563 -564 0
562 563 564 0
-565 -566 0
-565 -567 0
-566 -567 0
565 566 567 0
-568 -569 0
-568 -570 0
-569 -570 0
568 569 570 0
-571 -572 0
-571 -573 0
-572 -573 0
571 572 573 0
-574 -575 0
-574 -576 0
-575 -576 0
574 575 576 0
-577 -578 0
-577 -579 0
-578 -579 0
577 578 579 0
-580 -581 0
-580 -582 0
-581 -582 0
580 581 582 0
-583 -584 0
-583 -585 0
-584 -585 0
583 584 585 0
-586 -587 0
-586 -588 0
-587 -588 0
586 587 588 0
-589 -590 0
-589 -591 0
-590 -591 0
589 590 591 0
-592 -593 0
-592 -594 0
-593 -594 0
592 593 594 0
-595 -596 0
-595 -597 0
-596 -597 0
595 596 597 0
-598 -599 0
-598 -600 0
-599 -600 0
598 599 600 0
-25 -1 0
-26 -2 0
-27 -3 0
-73 -1 0
-74 -2 0
-75 -3 0
-190 -1 0
-191 -2 0
-192 -3 0
-289 -1 0
-290 -2 0
-291 -3 0
-595 -1 0
-596 -2 0
-597 -3 0
-598 -1 0
-599 -2 0
-600 -3 0
-148 -4 0
-149 -5 0
-150 -6 0
-412 -4 0
-413 -5 0
-414 -6 0
-541 -4 0
-542 -5 0
-543 -6 0
-127 -7 0
-128 -8 0
-129 -9 0
-181 -7 0
-182 -8 0
-183 -9 0
-304 -7 0
-305 -8 0
-306 -9 0
-388 -7 0
-389 -8 0
-390 -9 0
-451 -7 0
-452 -8 0
-453 -9 0
-22 -10 0
-23 -11 0
-24 -12 0
-34 -10 0
-35 -11 0
-36 -12 0
-262 -10 0
-263 -11 0
-264 -12 0
-328 -10 0
-329 -11 0
-330 -12 0
-364 -10 0
-365 -11 0
-366 -12 0
-49 -13 0
-50 -14 0
-51 -15 0
-118 -13 0
-119 -14 0
-120 -15 0
-220 -13 0
-221 -14 0
-222 -15 0
-256 -13 0
-257 -14 0
-258 -15 0
-289 -13 0
-290 -14 0
-291 -15 0
-409 -13 0
-410 -14 0
-411 -15 0
-61 -16 0
-62 -17 0
-63 -18 0
-157 -16 0
-158 -17 0
-159 -18 0
-208 -16 0
-209 -17 0
-210 -18 0
-226 -16 0
-227 -17 0
-228 -18 0
-562 -16 0
-563 -17 0
-564 -18 0
-76 -19 0
-77 -20 0
-78 -21 0
-271 -19 0
-272 -20 0
-273 -21 0
-418 -19 0
-419 -20 0
-420 -21 0
-424 -19 0
-425 -20 0
-426 -21 0
-565 -19 0
-566 -20 0
-567 -21 0
-202 -22 0
-203 -23 0
-204 -24 0
-214 -22 0
-215 -23 0
-216 -24 0
-220 -22 0
-221 -23 0
-222 -24 0
-268 -22 0
-269 -23 0
-270 -24 0
-478 -22 0
-479 -23 0
-480 -24 0
-133 -25 0
-134 -26 0
-135 -27 0
-394 -25 0
-395 -26 0
-396 -27 0
-442 -25 0
-443 -26 0
-444 -27 0
-529 -25 0
-530 -26 0
-531 -27 0
-157 -28 0
-158 -29 0
-159 -30 0
-172 -28 0
-173 -29 0
-174 -30 0
-301 -28 0
-302 -29 0
-303 -30 0
-367 -28 0
-368 -29 0
-369 -30 0
-424 -28 0
-425 -29 0
-426 -30 0
-448 -28 0
-449 -29 0
-450 -30 0
-460 -28 0
-461 -29 0
-462 -30 0
-568 -28 0
-569 -29 0
-570 -30 0
-151 -31 0
-152 -32 0
-153 -33 0
-205 -31 0
-206 -32 0
-207 -33 0
-556 -31 0
-557 -32 0
-558 -33 0
-586 -31 0
-587 -32 0
-588 -33 0
-595 -31 0
-596 -32 0
-597 -33 0
-91 -34 0
-92 -35 0
-93 -36 0
-289 -34 0
-290 -35 0
-291 -36 0
-577 -34 0
-578 -35 0
-579 -36 0
-598 -34 0
-599 -35 0
-600 -36 0
-253 -37 0
-254 -38 0
-255 -39 0
-256 -37 0
-257 -38 0
-258 -39 0
-265 -37 0
-266 -38 0
-267 -39 0
-394 -37 0
-395 -38 0
-396 -39 0
-508 -37 0
-509 -38 0
-510 -39 0
-325 -40 0
-326 -41 0
-327 -42 0
-337 -40 0
-338 -41 0
-339 -42 0
-349 -40 0
-350 -41 0
-351 -42 0
-376 -40 0
-377 -41 0
-378 -42 0
-388 -40 0
-389 -41 0
-390 -42 0
-430 -40 0
-431 -41 0
-432 -42 0
-481 -40 0
-482 -41 0
-483 -42 0
-259 -43 0
-260 -44 0
-261 -45 0
-286 -43 0
-287 -44 0
-288 -45 0
-328 -43 0
-329 -44 0
-330 -45 0
-403 -43 0
-404 -44 0
-405 -45 0
-292 -46 0
-293 -47 0
-294 -48 0
-352 -46 0
-353 -47 0
-354 -48 0
-439 -46 0
-440 -47 0
-441 -48 0
-514 -46 0
-515 -47 0
-516 -48 0
-538 -46 0
-539 -47 0
-540 -48 0
-556 -46 0
-557 -47 0
-558 -48 0
-106 -49 0
-107 -50 0
-108 -51 0
-286 -49 0
-287 -50 0
-288 -51 0
-322 -49 0
-323 -50 0
-324 -51 0
-478 -49 0
-479 -50 0
-480 -51 0
-115 -52 0
-116 -53 0
-117 -54 0
-289 -52 0
-290 -53 0
-291 -54 0
-436 -52 0
-437 -53 0
-438 -54 0
-574 -52 0
-575 -53 0
-576 -54 0
-103 -55 0
-104 -56 0
-105 -57 0
-217 -55 0
-218 -56 0
-219 -57 0
-325 -55 0
-326 -56 0
-327 -57 0
-571 -55 0
-572 -56 0
-573 -57 0
-100 -58 0
-101 -59 0
-102 -60 0
-139 -58 0
-140 -59 0
-141 -60 0
-151 -58 0
-152 -59 0
-153 -60 0
-424 -58 0
-425 -59 0
-426 -60 0
-523 -61 0
-524 -62 0
-525 -63 0
-586 -61 0
-587 -62 0
-588 -63 0
-184 -64 0
-185 -65 0
-186 -66 0
-361 -64 0
-362 -65 0
-363 -66 0
-373 -64 0
-374 -65 0
-375 -66 0
-454 -64 0
-455 -65 0
-456 -66 0
-397 -67 0
-398 -68 0
-399 -69 0
-532 -67 0
-533 -68 0
-534 -69 0
-505 -70 0
-506 -71 0
-507 -72 0
-154 -73 0
-155 -74 0
-156 -75 0
-280 -73 0
-281 -74 0
-282 -75 0
-421 -73 0
-422 -74 0
-423 -75 0
-571 -73 0
-572 -74 0
-573 -75 0
-385 -76 0
-386 -77 0
-387 -78 0
-526 -76 0
-527 -77 0
-528 -78 0
-532 -76 0
-533 -77 0
-534 -78 0
-154 -79 0
-155 -80 0
-156 -81 0
-310 -79 0
-311 -80 0
-312 -81 0
-370 -79 0
-371 -80 0
-372 -81 0
-424 -79 0
-425 -80 0
-426 -81 0
-445 -79 0
-446 -80 0
-447 -81 0
-451 -79 0
-452 -80 0
-453 -81 0
-532 -79 0
-533 -80 0
-534 -81 0
-556 -79 0
-557 -80 0
-558 -81 0
-148 -82 0
-149 -83 0
-150 -84 0
-298 -82 0
-299 -83 0
-300 -84 0
-397 -82 0
-398 -83 0
-399 -84 0
-466 -82 0
-467 -83 0
-468 -84 0
-514 -82 0
-515 -83 0
-516 -84 0
-190 -85 0
-191 -86 0
-192 -87 0
-553 -85 0
-554 -86 0
-555 -87 0
-193 -88 0
-194 -89 0
-195 -90 0
-322 -88 0
-323 -89 0
-324 -90 0
-364 -88 0
-365 -89 0
-366 -90 0
-568 -88 0
-569 -89 0
-570 -90 0
-118 -91 0
-119 -92 0
-120 -93 0
-130 -91 0
-131 -92 0
-132 -93 0
-328 -91 0
-329 -92 0
-330 -93 0
-466 -91 0
-467 -92 0
-468 -93 0
-574 -91 0
-575 -92 0
-576 -93 0
-331 -94 0
-332 -95 0
-333 -96 0
-595 -94 0
-596 -95 0
-597 -96 0
-337 -97 0
-338 -98 0
-339 -99 0
-346 -97 0
-347 -98 0
-348 -99 0
-451 -97 0
-452 -98 0
-453 -99 0
-112 -100 0
-113 -101 0
-114 -102 0
-190 -100 0
-191 -101 0
-192 -102 0
-343 -100 0
-344 -101 0
-345 -102 0
-328 -103 0
-329 -104 0
-330 -105 0
-418 -103 0
-419 -104 0
-420 -105 0
-544 -103 0
-545 -104 0
-546 -105 0
-229 -106 0
-230 -107 0
-231 -108 0
-310 -106 0
-311 -107 0
-312 -108 0
-529 -106 0
-530 -107 0
-531 -108 0
-568 -106 0
-569 -107 0
-570 -108 0
-277 -109 0
-278 -110 0
-279 -111 0
-382 -109 0
-383 -110 0
-384 -111 0
-502 -109 0
-503 -110 0
-504 -111 0
-523 -109 0
-524 -110 0
-525 -111 0
-343 -112 0
-344 -113 0
-345 -114 0
-127 -115 0
-128 -116 0
-129 -117 0
-169 -115 0
-170 -116 0
-171 -117 0
-529 -115 0
-530 -116 0
-531 -117 0
-244 -118 0
-245 -119 0
-246 -120 0
-484 -118 0
-485 -119 0
-486 -120 0
-175 -121 0
-176 -122 0
-177 -123 0
-292 -121 0
-293 -122 0
-294 -123 0
-370 -121 0
-371 -122 0
-372 -123 0
-481 -121 0
-482 -122 0
-483 -123 0
-487 -121 0
-488 -122 0
-489 -123 0
-133 -124 0
-134 -125 0
-135 -126 0
-253 -124 0
-254 -125 0
-255 -126 0
-268 -124 0
-269 -125 0
-270 -126 0
-316 -124 0
-317 -125 0
-318 -126 0
-406 -124 0
-407 -125 0
-408 -126 0
-442 -124 0
-443 -125 0
-444 -126 0
-130 -127 0
-131 -128 0
-132 -129 0
-163 -127 0
-164 -128 0
-165 -129 0
-256 -127 0
-257 -128 0
-258 -129 0
-331 -127 0
-332 -128 0
-333 -129 0
-175 -130 0
-176 -131 0
-177 -132 0
-214 -130 0
-215 -131 0
-216 -132 0
-292 -130 0
-293 -131 0
-294 -132 0
-418 -130 0
-419 -131 0
-420 -132 0
-181 -133 0
-182 -134 0
-183 -135 0
-265 -133 0
-266 -134 0
-267 -135 0
-286 -133 0
-287 -134 0
-288 -135 0
-460 -133 0
-461 -134 0
-462 -135 0
-565 -136 0
-566 -137 0
-567 -138 0
-343 -139 0
-344 -140 0
-345 -141 0
-346 -139 0
-347 -140 0
-348 -141 0
-421 -139 0
-422 -140 0
-423 -141 0
-583 -139 0
-584 -140 0
-585 -141 0
-595 -139 0
-596 -140 0
-597 -141 0
-400 -142 0
-401 -143 0
-402 -144 0
-445 -142 0
-446 -143 0
-447 -144 0
-478 -142 0
-479 -143 0
-480 -144 0
-187 -145 0
-188 -146 0
-189 -147 0
-412 -145 0
-413 -146 0
-414 -147 0
-460 -145 0
-461 -146 0
-462 -147 0
-589 -145 0
-590 -146 0
-591 -147 0
-295 -148 0
-296 -149 0
-297 -150 0
-334 -148 0
-335 -149 0
-336 -150 0
-394 -148 0
-395 -149 0
-396 -150 0
-409 -148 0
-410 -149 0
-411 -150 0
-439 -148 0
-440 -149 0
-441 -150 0
-454 -148 0
-455 -149 0
-456 -150 0
-208 -151 0
-209 -152 0
-210 -153 0
-241 -151 0
-242 -152 0
-243 -153 0
-310 -151 0
-311 -152 0
-312 -153 0
-421 -151 0
-422 -152 0
-423 -153 0
-193 -154 0
-194 -155 0
-195 -156 0
-220 -154 0
-221 -155 0
-222 -156 0
-322 -154 0
-323 -155 0
-324 -156 0
-325 -154 0
-326 -155 0
-327 -156 0
-367 -154 0
-368 -155 0
-369 -156 0
-271 -157 0
-272 -158 0
-273 -159 0
-211 -160 0
-212 -161 0
-213 -162 0
-337 -163 0
-338 -164 0
-339 -165 0
-433 -163 0
-434 -164 0
-435 -165 0
-448 -163 0
-449 -164 0
-450 -165 0
-565 -163 0
-566 -164 0
-567 -165 0
-568 -163 0
-569 -164 0
-570 -165 0
-208 -166 0
-209 -167 0
-210 -168 0
-241 -166 0
-242 -167 0
-243 -168 0
-319 -166 0
-320 -167 0
-321 -168 0
-547 -166 0
-548 -167 0
-549 -168 0
-433 -169 0
-434 -170 0
-435 -171 0
-178 -172 0
-179 -173 0
-180 -174 0
-493 -172 0
-494 -173 0
-495 -174 0
-532 -172 0
-533 -173 0
-534 -174 0
-589 -172 0
-590 -173 0
-591 -174 0
-211 -175 0
-212 -176 0
-213 -177 0
-223 -175 0
-224 -176 0
-225 -177 0
-502 -175 0
-503 -176 0
-504 -177 0
-529 -175 0
-530 -176 0
-531 -177 0
-538 -175 0
-539 -176 0
-540 -177 0
-283 -178 0
-284 -179 0
-285 -180 0
-478 -178 0
-479 -179 0
-480 -180 0
-496 -178 0
-497 -179 0
-498 -180 0
-526 -178 0
-527 -179 0
-528 -180 0
-244 -181 0
-245 -182 0
-246 -183 0
-277 -181 0
-278 -182 0
-279 -183 0
-289 -181 0
-290 -182 0
-291 -183 0
-361 -181 0
-362 -182 0
-363 -183 0
-394 -181 0
-395 -182 0
-396 -183 0
-559 -181 0
-560 -182 0
-561 -183 0
-277 -184 0
-278 -185 0
-279 -186 0
-385 -184 0
-386 -185 0
-387 -186 0
-409 -184 0
-410 -185 0
-411 -186 0
-517 -184 0
-518 -185 0
-519 -186 0
-520 -184 0
-521 -185 0
-522 -186 0
-199 -187 0
-200 -188 0
-201 -189 0
-223 -187 0
-224 -188 0
-225 -189 0
-226 -187 0
-227 -188 0
-228 -189 0
-379 -187 0
-380 -188 0
-381 -189 0
-403 -187 0
-404 -188 0
-405 -189 0
-481 -187 0
-482 -188 0
-483 -189 0
-526 -187 0
-527 -188 0
-528 -189 0
-586 -190 0
-587 -191 0
-588 -192 0
-271 -193 0
-272 -194 0
-273 -195 0
-382 -193 0
-383 -194 0
-384 -195 0
-442 -193 0
-443 -194 0
-444 -195 0
-361 -196 0
-362 -197 0
-363 -198 0
-526 -196 0
-527 -197 0
-528 -198 0
-223 -199 0
-224 -200 0
-225 -201 0
-421 -199 0
-422 -200 0
-423 -201 0
-448 -199 0
-449 -200 0
-450 -201 0
-532 -199 0
-533 -200 0
-534 -201 0
-592 -199 0
-593 -200 0
-594 -201 0
-208 -202 0
-209 -203 0
-210 -204 0
-226 -202 0
-227 -203 0
-228 -204 0
-229 -202 0
-230 -203 0
-231 -204 0
-256 -202 0
-257 -203 0
-258 -204 0
-337 -202 0
-338 -203 0
-339 -204 0
-214 -205 0
-215 -206 0
-216 -207 0
-316 -205 0
-317 -206 0
-318 -207 0
-415 -205 0
-416 -206 0
-417 -207 0
-484 -205 0
-485 -206 0
-486 -207 0
-514 -208 0
-515 -209 0
-516 -210 0
-589 -208 0
-590 -209 0
-591 -210 0
-214 -211 0
-215 -212 0
-216 -213 0
-376 -211 0
-377 -212 0
-378 -213 0
-397 -211 0
-398 -212 0
-399 -213 0
-571 -211 0
-572 -212 0
-573 -213 0
-580 -211 0
-581 -212 0
-582 -213 0
-304 -214 0
-305 -215 0
-306 -216 0
-439 -214 0
-440 -215 0
-441 -216 0
-526 -214 0
-527 -215 0
-528 -216 0
-529 -214 0
-530 -215 0
-531 -216 0
-244 -217 0
-245 -218 0
-246 -219 0
-310 -217 0
-311 -218 0
-312 -219 0
-313 -217 0
-314 -218 0
-315 -219 0
-328 -217 0
-329 -218 0
-330 -219 0
-586 -217 0
-587 -218 0
-588 -219 0
-280 -220 0
-281 -221 0
-282 -222 0
-289 -220 0
-290 -221 0
-291 -222 0
-376 -220 0
-377 -221 0
-378 -222 0
-463 -220 0
-464 -221 0
-465 -222 0
-577 -220 0
-578 -221 0
-579 -222 0
-322 -223 0
-323 -224 0
-324 -225 0
-349 -223 0
-350 -224 0
-351 -225 0
-358 -223 0
-359 -224 0
-360 -225 0
-406 -223 0
-407 -224 0
-408 -225 0
-466 -226 0
-467 -227 0
-468 -228 0
-526 -226 0
-527 -227 0
-528 -228 0
-547 -226 0
-548 -227 0
-549 -228 0
-331 -229 0
-332 -230 0
-333 -231 0
-388 -229 0
-389 -230 0
-390 -231 0
-427 -229 0
-428 -230 0
-429 -231 0
-448 -229 0
-449 -230 0
-450 -231 0
-559 -229 0
-560 -230 0
-561 -231 0
-562 -229 0
-563 -230 0
-564 -231 0
-331 -232 0
-332 -233 0
-333 -234 0
-436 -232 0
-437 -233 0
-438 -234 0
-442 -232 0
-443 -233 0
-444 -234 0
-475 -232 0
-476 -233 0
-477 -234 0
-496 -232 0
-497 -233 0
-498 -234 0
-532 -232 0
-533 -233 0
-534 -234 0
-544 -232 0
-545 -233 0
-546 -234 0
-367 -235 0
-368 -236 0
-369 -237 0
-394 -235 0
-395 -236 0
-396 -237 0
-418 -235 0
-419 -236 0
-420 -237 0
-367 -238 0
-368 -239 0
-369 -240 0
-409 -238 0
-410 -239 0
-411 -240 0
-460 -238 0
-461 -239 0
-462 -240 0
-295 -241 0
-296 -242 0
-297 -243 0
-334 -241 0
-335 -242 0
-336 -243 0
-364 -244 0
-365 -245 0
-366 -246 0
-286 -247 0
-287 -248 0
-288 -249 0
-334 -247 0
-335 -248 0
-336 -249 0
-370 -250 0
-371 -251 0
-372 -252 0
-439 -250 0
-440 -251 0
-441 -252 0
-433 -253 0
-434 -254 0
-435 -255 0
-472 -253 0
-473 -254 0
-474 -255 0
-532 -253 0
-533 -254 0
-534 -255 0
-298 -256 0
-299 -257 0
-300 -258 0
-325 -256 0
-326 -257 0
-327 -258 0
-436 -256 0
-437 -257 0
-438 -258 0
-271 -259 0
-272 -260 0
-273 -261 0
-292 -259 0
-293 -260 0
-294 -261 0
-430 -259 0
-431 -260 0
-432 -261 0
-445 -259 0
-446 -260 0
-447 -261 0
-499 -259 0
-500 -260 0
-501 -261 0
-319 -262 0
-320 -263 0
-321 -264 0
-331 -262 0
-332 -263 0
-333 -264 0
-280 -265 0
-281 -266 0
-282 -267 0
-445 -265 0
-446 -266 0
-447 -267 0
-562 -265 0
-563 -266 0
-564 -267 0
-295 -268 0
-296 -269 0
-297 -270 0
-355 -268 0
-356 -269 0
-357 -270 0
-298 -271 0
-299 -272 0
-300 -273 0
-307 -271 0
-308 -272 0
-309 -273 0
-325 -271 0
-326 -272 0
-327 -273 0
-490 -271 0
-491 -272 0
-492 -273 0
-370 -274 0
-371 -275 0
-372 -276 0
-472 -277 0
-473 -278 0
-474 -279 0
-304 -280 0
-305 -281 0
-306 -282 0
-415 -280 0
-416 -281 0
-417 -282 0
-385 -283 0
-386 -284 0
-387 -285 0
-436 -283 0
-437 -284 0
-438 -285 0
-499 -286 0
-500 -287 0
-501 -288 0
-523 -286 0
-524 -287 0
-525 -288 0
-460 -289 0
-461 -290 0
-462 -291 0
-589 -292 0
-590 -293 0
-591 -294 0
-598 -292 0
-599 -293 0
-600 -294 0
-415 -295 0
-416 -296 0
-417 -297 0
-418 -295 0
-419 -296 0
-420 -297 0
-460 -295 0
-461 -296 0
-462 -297 0
-583 -295 0
-584 -296 0
-585 -297 0
-442 -298 0
-443 -299 0
-444 -300 0
-550 -298 0
-551 -299 0
-552 -300 0
-313 -301 0
-314 -302 0
-315 -303 0
-358 -301 0
-359 -302 0
-360 -303 0
-445 -301 0
-446 -302 0
-447 -303 0
-454 -304 0
-455 -305 0
-456 -306 0
-388 -307 0
-389 -308 0
-390 -309 0
-559 -307 0
-560 -308 0
-561 -309 0
-538 -310 0
-539 -311 0
-540 -312 0
-535 -313 0
-536 -314 0
-537 -315 0
-541 -313 0
-542 -314 0
-543 -315 0
-343 -316 0
-344 -317 0
-345 -318 0
-346 -316 0
-347 -317 0
-348 -318 0
-400 -316 0
-401 -317 0
-402 -318 0
-322 -319 0
-323 -320 0
-324 -321 0
-370 -319 0
-371 -320 0
-372 -321 0
-382 -319 0
-383 -320 0
-384 -321 0
-580 -319 0
-581 -320 0
-582 -321 0
-364 -322 0
-365 -323 0
-366 -324 0
-445 -322 0
-446 -323 0
-447 -324 0
-565 -322 0
-566 -323 0
-567 -324 0
-382 -325 0
-383 -326 0
-384 -327 0
-403 -325 0
-404 -326 0
-405 -327 0
-427 -325 0
-428 -326 0
-429 -327 0
-367 -328 0
-368 -329 0
-369 -330 0
-340 -331 0
-341 -332 0
-342 -333 0
-394 -331 0
-395 -332 0
-396 -333 0
-487 -331 0
-488 -332 0
-489 -333 0
-403 -334 0
-404 -335 0
-405 -336 0
-454 -334 0
-455 -335 0
-456 -336 0
-466 -334 0
-467 -335 0
-468 -336 0
-493 -337 0
-494 -338 0
-495 -339 0
-352 -340 0
-353 -341 0
-354 -342 0
-496 -340 0
-497 -341 0
-498 -342 0
-541 -340 0
-542 -341 0
-543 -342 0
-352 -343 0
-353 -344 0
-354 -345 0
-517 -343 0
-518 -344 0
-519 -345 0
-541 -343 0
-542 -344 0
-543 -345 0
-355 -346 0
-356 -347 0
-357 -348 0
-382 -349 0
-383 -350 0
-384 -351 0
-496 -349 0
-497 -350 0
-498 -351 0
-520 -349 0
-521 -350 0
-522 -351 0
-583 -352 0
-584 -353 0
-585 -354 0
-379 -355 0
-380 -356 0
-381 -357 0
-505 -355 0
-506 -356 0
-507 -357 0
-427 -358 0
-428 -359 0
-429 -360 0
-463 -358 0
-464 -359 0
-465 -360 0
-496 -358 0
-497 -359 0
-498 -360 0
-520 -361 0
-521 -362 0
-522 -363 0
-556 -361 0
-557 -362 0
-558 -363 0
-568 -361 0
-569 -362 0
-570 -363 0
-592 -361 0
-593 -362 0
-594 -363 0
-472 -364 0
-473 -365 0
-474 -366 0
-559 -370 0
-560 -371 0
-561 -372 0
-562 -370 0
-563 -371 0
-564 -372 0
-598 -370 0
-599 -371 0
-600 -372 0
-385 -373 0
-386 -374 0
-387 -375 0
-433 -373 0
-434 -374 0
-435 -375 0
-592 -373 0
-593 -374 0
-594 -375 0
-409 -379 0
-410 -380 0
-411 -381 0
-442 -379 0
-443 -380 0
-444 -381 0
-550 -382 0
-551 -383 0
-552 -384 0
-577 -382 0
-578 -383 0
-579 -384 0
-406 -385 0
-407 -386 0
-408 -387 0
-535 -388 0
-536 -389 0
-537 -390 0
-406 -394 0
-407 -395 0
-408 -396 0
-430 -397 0
-431 -398 0
-432 -399 0
-529 -400 0
-530 -401 0
-531 -402 0
-541 -400 0
-542 -401 0
-543 -402 0
-475 -406 0
-476 -407 0
-477 -408 0
-574 -406 0
-575 -407 0
-576 -408 0
-583 -409 0
-584 -410 0
-585 -411 0
-559 -412 0
-560 -413 0
-561 -414 0
-565 -415 0
-566 -416 0
-567 -417 0
-580 -418 0
-581 -419 0
-582 -420 0
-595 -418 0
-596 -419 0
-597 -420 0
-553 -421 0
-554 -422 0
-555 -423 0
-457 -430 0
-458 -431 0
-459 -432 0
-466 -430 0
-467 -431 0
-468 -432 0
-547 -430 0
-548 -431 0
-549 -432 0
-514 -439 0
-515 -440 0
-516 -441 0
-520 -439 0
-521 -440 0
-522 -441 0
-490 -451 0
-491 -452 0
-492 -453 0
-523 -451 0
-524 -452 0
-525 -453 0
-577 -451 0
-578 -452 0
-579 -453 0
-472 -454 0
-473 -455 0
-474 -456 0
-535 -454 0
-536 -455 0
-537 -456 0
-460 -457 0
-461 -458 0
-462 -459 0
-505 -460 0
-506 -461 0
-507 -462 0
-478 -463 0
-479 -464 0
-480 -465 0
-520 -463 0
-521 -464 0
-522 -465 0
-487 -466 0
-488 -467 0
-489 -468 0
-580 -469 0
-581 -470 0
-582 -471 0
-505 -472 0
-506 -473 0
-507 -474 0
-568 -472 0
-569 -473 0
-570 -474 0
-529 -481 0
-530 -482 0
-531 -483 0
-499 -484 0
-500 -485 0
-501 -486 0
-577 -484 0
-578 -485 0
-579 -486 0
-514 -490 0
-515 -491 0
-516 -492 0
-598 -490 0
-599 -491 0
-600 -492 0
-535 -493 0
-536 -494 0
-537 -495 0
-556 -526 0
-557 -527 0
-558 -528 0
-592 -529 0
-593 -530 0
-594 -531 0
-547 -532 0
-548 -533 0
-549 -534 0
-547 -538 0
-548 -539 0
-549 -540 0
-586 -538 0
-587 -539 0
-588 -540 0
-577 -544 0
-578 -545 0
-579 -546 0
-592 -550 0
-593 -551 0
-594 -552 0
-598 -568 0
-599 -569 0
-600 -570 0
-595 -574 0
-596 -575 0
-597 -576 0
